1000 100
190 199
386 167
455 457
234 442
302 346
111 20
499 432
260 250
50 172
442 315
161 218
490 228
153 157
438 329
156 87
167 22
239 469
442 142
109 500
385 360
6 299
209 28
70 466
140 223
292 58
247 345
41 200
200 204
334 199
193 424
93 287
308 69
202 439
92 365
108 483
331 207
115 468
62 436
240 9
109 118
81 399
32 258
274 385
122 120
113 157
447 358
15 471
383 322
243 296
154 317
421 151
3 10
54 496
36 271
266 7
63 335
337 29
250 304
270 92
296 177
493 217
214 113
374 23
283 258
76 121
197 360
185 35
499 266
256 67
108 249
477 350
303 55
89 382
325 125
236 136
84 465
399 163
150 369
415 290
53 52
498 318
378 498
167 84
401 368
134 373
429 402
6 105
331 65
404 470
96 141
249 136
22 272
284 230
5 353
110 482
233 397
373 89
331 62
68 49
340 430
